(set-logic QF_S)
(declare-fun var0 () String)
(assert (str.in.re var0 (re.++ (re.* (re.+ (str.to.re "000"))) (re.++ (re.* (re.union (str.to.re "1") (str.to.re "2"))) (re.++ (re.union (re.+ (str.to.re "3")) (re.+ (str.to.re "4"))) (re.++ (re.union (re.+ (str.to.re "5")) (re.+ (str.to.re "6"))) (re.++ (re.+ (re.* (str.to.re "777"))) (re.++ (re.union (re.* (str.to.re "888")) (re.* (str.to.re "99"))) (re.++ (re.* (re.* (str.to.re "aa"))) (re.++ (re.union (re.+ (str.to.re "bbb")) (re.+ (str.to.re "c"))) (re.++ (re.union (re.* (str.to.re "ddd")) (re.* (str.to.re "ee"))) (re.++ (re.+ (re.* (str.to.re "fff"))) (re.++ (re.* (re.* (str.to.re "gg"))) (re.++ (re.+ (re.union (str.to.re "h") (str.to.re "i"))) (re.++ (re.union (re.union (str.to.re "j") (str.to.re "kkk")) (re.union (str.to.re "ll") (str.to.re "mmm"))) (re.++ (re.* (re.+ (str.to.re "nnn"))) (re.+ (re.+ (str.to.re "ooo")))))))))))))))))))
(check-sat)